letting numberCities be 42
letting distances be function (
(1,1) --> 0,
(1,2) --> 15,
(1,3) --> 30,
(1,4) --> 23,
(1,5) --> 32,
(1,6) --> 55,
(1,7) --> 33,
(1,8) --> 37,
(1,9) --> 92,
(1,10) --> 114,
(1,11) --> 92,
(1,12) --> 110,
(1,13) --> 96,
(1,14) --> 90,
(1,15) --> 74,
(1,16) --> 76,
(1,17) --> 82,
(1,18) --> 67,
(1,19) --> 72,
(1,20) --> 78,
(1,21) --> 82,
(1,22) --> 159,
(1,23) --> 122,
(1,24) --> 131,
(1,25) --> 206,
(1,26) --> 112,
(1,27) --> 57,
(1,28) --> 28,
(1,29) --> 43,
(1,30) --> 70,
(1,31) --> 65,
(1,32) --> 66,
(1,33) --> 37,
(1,34) --> 103,
(1,35) --> 84,
(1,36) --> 125,
(1,37) --> 129,
(1,38) --> 72,
(1,39) --> 126,
(1,40) --> 141,
(1,41) --> 183,
(1,42) --> 124,
(2,1) --> 15,
(2,2) --> 0,
(2,3) --> 34,
(2,4) --> 23,
(2,5) --> 27,
(2,6) --> 40,
(2,7) --> 19,
(2,8) --> 32,
(2,9) --> 93,
(2,10) --> 117,
(2,11) --> 88,
(2,12) --> 100,
(2,13) --> 87,
(2,14) --> 75,
(2,15) --> 63,
(2,16) --> 67,
(2,17) --> 71,
(2,18) --> 69,
(2,19) --> 62,
(2,20) --> 63,
(2,21) --> 96,
(2,22) --> 164,
(2,23) --> 132,
(2,24) --> 131,
(2,25) --> 212,
(2,26) --> 106,
(2,27) --> 44,
(2,28) --> 33,
(2,29) --> 51,
(2,30) --> 77,
(2,31) --> 75,
(2,32) --> 72,
(2,33) --> 52,
(2,34) --> 118,
(2,35) --> 99,
(2,36) --> 132,
(2,37) --> 132,
(2,38) --> 67,
(2,39) --> 139,
(2,40) --> 148,
(2,41) --> 186,
(2,42) --> 122,
(3,1) --> 30,
(3,2) --> 34,
(3,3) --> 0,
(3,4) --> 11,
(3,5) --> 18,
(3,6) --> 57,
(3,7) --> 36,
(3,8) --> 65,
(3,9) --> 62,
(3,10) --> 84,
(3,11) --> 64,
(3,12) --> 89,
(3,13) --> 76,
(3,14) --> 93,
(3,15) --> 95,
(3,16) --> 100,
(3,17) --> 104,
(3,18) --> 98,
(3,19) --> 57,
(3,20) --> 88,
(3,21) --> 99,
(3,22) --> 130,
(3,23) --> 100,
(3,24) --> 101,
(3,25) --> 179,
(3,26) --> 86,
(3,27) --> 51,
(3,28) --> 4,
(3,29) --> 18,
(3,30) --> 43,
(3,31) --> 45,
(3,32) --> 95,
(3,33) --> 45,
(3,34) --> 115,
(3,35) --> 93,
(3,36) --> 152,
(3,37) --> 159,
(3,38) --> 100,
(3,39) --> 112,
(3,40) --> 114,
(3,41) --> 153,
(3,42) --> 94,
(4,1) --> 23,
(4,2) --> 23,
(4,3) --> 11,
(4,4) --> 0,
(4,5) --> 11,
(4,6) --> 48,
(4,7) --> 26,
(4,8) --> 54,
(4,9) --> 70,
(4,10) --> 94,
(4,11) --> 69,
(4,12) --> 89,
(4,13) --> 75,
(4,14) --> 84,
(4,15) --> 84,
(4,16) --> 89,
(4,17) --> 92,
(4,18) --> 89,
(4,19) --> 54,
(4,20) --> 78,
(4,21) --> 99,
(4,22) --> 141,
(4,23) --> 111,
(4,24) --> 109,
(4,25) --> 190,
(4,26) --> 89,
(4,27) --> 44,
(4,28) --> 11,
(4,29) --> 29,
(4,30) --> 54,
(4,31) --> 56,
(4,32) --> 89,
(4,33) --> 47,
(4,34) --> 118,
(4,35) --> 96,
(4,36) --> 147,
(4,37) --> 151,
(4,38) --> 90,
(4,39) --> 122,
(4,40) --> 126,
(4,41) --> 163,
(4,42) --> 101,
(5,1) --> 32,
(5,2) --> 27,
(5,3) --> 18,
(5,4) --> 11,
(5,5) --> 0,
(5,6) --> 40,
(5,7) --> 20,
(5,8) --> 58,
(5,9) --> 67,
(5,10) --> 92,
(5,11) --> 61,
(5,12) --> 78,
(5,13) --> 65,
(5,14) --> 76,
(5,15) --> 83,
(5,16) --> 89,
(5,17) --> 91,
(5,18) --> 95,
(5,19) --> 43,
(5,20) --> 72,
(5,21) --> 110,
(5,22) --> 141,
(5,23) --> 116,
(5,24) --> 105,
(5,25) --> 190,
(5,26) --> 81,
(5,27) --> 34,
(5,28) --> 19,
(5,29) --> 35,
(5,30) --> 57,
(5,31) --> 63,
(5,32) --> 97,
(5,33) --> 58,
(5,34) --> 129,
(5,35) --> 107,
(5,36) --> 156,
(5,37) --> 158,
(5,38) --> 92,
(5,39) --> 129,
(5,40) --> 127,
(5,41) --> 161,
(5,42) --> 95,
(6,1) --> 55,
(6,2) --> 40,
(6,3) --> 57,
(6,4) --> 48,
(6,5) --> 40,
(6,6) --> 0,
(6,7) --> 23,
(6,8) --> 55,
(6,9) --> 96,
(6,10) --> 123,
(6,11) --> 78,
(6,12) --> 75,
(6,13) --> 62,
(6,14) --> 36,
(6,15) --> 56,
(6,16) --> 66,
(6,17) --> 63,
(6,18) --> 95,
(6,19) --> 37,
(6,20) --> 34,
(6,21) --> 137,
(6,22) --> 174,
(6,23) --> 156,
(6,24) --> 129,
(6,25) --> 224,
(6,26) --> 90,
(6,27) --> 15,
(6,28) --> 59,
(6,29) --> 75,
(6,30) --> 96,
(6,31) --> 103,
(6,32) --> 105,
(6,33) --> 91,
(6,34) --> 158,
(6,35) --> 139,
(6,36) --> 164,
(6,37) --> 156,
(6,38) --> 78,
(6,39) --> 169,
(6,40) --> 163,
(6,41) --> 191,
(6,42) --> 115,
(7,1) --> 33,
(7,2) --> 19,
(7,3) --> 36,
(7,4) --> 26,
(7,5) --> 20,
(7,6) --> 23,
(7,7) --> 0,
(7,8) --> 45,
(7,9) --> 85,
(7,10) --> 111,
(7,11) --> 75,
(7,12) --> 82,
(7,13) --> 69,
(7,14) --> 60,
(7,15) --> 63,
(7,16) --> 70,
(7,17) --> 71,
(7,18) --> 85,
(7,19) --> 44,
(7,20) --> 52,
(7,21) --> 115,
(7,22) --> 161,
(7,23) --> 136,
(7,24) --> 122,
(7,25) --> 210,
(7,26) --> 91,
(7,27) --> 25,
(7,28) --> 37,
(7,29) --> 54,
(7,30) --> 78,
(7,31) --> 81,
(7,32) --> 90,
(7,33) --> 68,
(7,34) --> 136,
(7,35) --> 116,
(7,36) --> 150,
(7,37) --> 147,
(7,38) --> 76,
(7,39) --> 148,
(7,40) --> 147,
(7,41) --> 180,
(7,42) --> 111,
(8,1) --> 37,
(8,2) --> 32,
(8,3) --> 65,
(8,4) --> 54,
(8,5) --> 58,
(8,6) --> 55,
(8,7) --> 45,
(8,8) --> 0,
(8,9) --> 124,
(8,10) --> 149,
(8,11) --> 118,
(8,12) --> 126,
(8,13) --> 113,
(8,14) --> 80,
(8,15) --> 42,
(8,16) --> 42,
(8,17) --> 49,
(8,18) --> 40,
(8,19) --> 87,
(8,20) --> 60,
(8,21) --> 94,
(8,22) --> 195,
(8,23) --> 158,
(8,24) --> 163,
(8,25) --> 242,
(8,26) --> 135,
(8,27) --> 65,
(8,28) --> 63,
(8,29) --> 79,
(8,30) --> 106,
(8,31) --> 101,
(8,32) --> 50,
(8,33) --> 66,
(8,34) --> 118,
(8,35) --> 104,
(8,36) --> 109,
(8,37) --> 103,
(8,38) --> 36,
(8,39) --> 160,
(8,40) --> 178,
(8,41) --> 218,
(8,42) --> 153,
(9,1) --> 92,
(9,2) --> 93,
(9,3) --> 62,
(9,4) --> 70,
(9,5) --> 67,
(9,6) --> 96,
(9,7) --> 85,
(9,8) --> 124,
(9,9) --> 0,
(9,10) --> 28,
(9,11) --> 29,
(9,12) --> 68,
(9,13) --> 63,
(9,14) --> 122,
(9,15) --> 148,
(9,16) --> 155,
(9,17) --> 156,
(9,18) --> 159,
(9,19) --> 67,
(9,20) --> 129,
(9,21) --> 148,
(9,22) --> 78,
(9,23) --> 80,
(9,24) --> 39,
(9,25) --> 129,
(9,26) --> 46,
(9,27) --> 82,
(9,28) --> 65,
(9,29) --> 55,
(9,30) --> 40,
(9,31) --> 61,
(9,32) --> 157,
(9,33) --> 97,
(9,34) --> 159,
(9,35) --> 135,
(9,36) --> 212,
(9,37) --> 221,
(9,38) --> 159,
(9,39) --> 110,
(9,40) --> 72,
(9,41) --> 95,
(9,42) --> 35,
(10,1) --> 114,
(10,2) --> 117,
(10,3) --> 84,
(10,4) --> 94,
(10,5) --> 92,
(10,6) --> 123,
(10,7) --> 111,
(10,8) --> 149,
(10,9) --> 28,
(10,10) --> 0,
(10,11) --> 54,
(10,12) --> 91,
(10,13) --> 88,
(10,14) --> 150,
(10,15) --> 174,
(10,16) --> 181,
(10,17) --> 182,
(10,18) --> 181,
(10,19) --> 95,
(10,20) --> 157,
(10,21) --> 159,
(10,22) --> 50,
(10,23) --> 65,
(10,24) --> 27,
(10,25) --> 102,
(10,26) --> 65,
(10,27) --> 110,
(10,28) --> 87,
(10,29) --> 73,
(10,30) --> 50,
(10,31) --> 68,
(10,32) --> 176,
(10,33) --> 112,
(10,34) --> 166,
(10,35) --> 142,
(10,36) --> 229,
(10,37) --> 241,
(10,38) --> 184,
(10,39) --> 99,
(10,40) --> 46,
(10,41) --> 69,
(10,42) --> 38,
(11,1) --> 92,
(11,2) --> 88,
(11,3) --> 64,
(11,4) --> 69,
(11,5) --> 61,
(11,6) --> 78,
(11,7) --> 75,
(11,8) --> 118,
(11,9) --> 29,
(11,10) --> 54,
(11,11) --> 0,
(11,12) --> 39,
(11,13) --> 34,
(11,14) --> 99,
(11,15) --> 134,
(11,16) --> 142,
(11,17) --> 141,
(11,18) --> 157,
(11,19) --> 44,
(11,20) --> 110,
(11,21) --> 161,
(11,22) --> 103,
(11,23) --> 109,
(11,24) --> 52,
(11,25) --> 154,
(11,26) --> 22,
(11,27) --> 63,
(11,28) --> 68,
(11,29) --> 66,
(11,30) --> 61,
(11,31) --> 81,
(11,32) --> 158,
(11,33) --> 107,
(11,34) --> 175,
(11,35) --> 151,
(11,36) --> 216,
(11,37) --> 219,
(11,38) --> 150,
(11,39) --> 137,
(11,40) --> 100,
(11,41) --> 115,
(11,42) --> 37,
(12,1) --> 110,
(12,2) --> 100,
(12,3) --> 89,
(12,4) --> 89,
(12,5) --> 78,
(12,6) --> 75,
(12,7) --> 82,
(12,8) --> 126,
(12,9) --> 68,
(12,10) --> 91,
(12,11) --> 39,
(12,12) --> 0,
(12,13) --> 14,
(12,14) --> 80,
(12,15) --> 129,
(12,16) --> 139,
(12,17) --> 135,
(12,18) --> 167,
(12,19) --> 39,
(12,20) --> 98,
(12,21) --> 187,
(12,22) --> 136,
(12,23) --> 148,
(12,24) --> 81,
(12,25) --> 186,
(12,26) --> 28,
(12,27) --> 61,
(12,28) --> 92,
(12,29) --> 97,
(12,30) --> 98,
(12,31) --> 117,
(12,32) --> 173,
(12,33) --> 134,
(12,34) --> 204,
(12,35) --> 181,
(12,36) --> 232,
(12,37) --> 229,
(12,38) --> 153,
(12,39) --> 176,
(12,40) --> 137,
(12,41) --> 143,
(12,42) --> 62,
(13,1) --> 96,
(13,2) --> 87,
(13,3) --> 76,
(13,4) --> 75,
(13,5) --> 65,
(13,6) --> 62,
(13,7) --> 69,
(13,8) --> 113,
(13,9) --> 63,
(13,10) --> 88,
(13,11) --> 34,
(13,12) --> 14,
(13,13) --> 0,
(13,14) --> 72,
(13,15) --> 117,
(13,16) --> 128,
(13,17) --> 124,
(13,18) --> 153,
(13,19) --> 26,
(13,20) --> 88,
(13,21) --> 174,
(13,22) --> 136,
(13,23) --> 142,
(13,24) --> 82,
(13,25) --> 187,
(13,26) --> 32,
(13,27) --> 48,
(13,28) --> 79,
(13,29) --> 85,
(13,30) --> 89,
(13,31) --> 106,
(13,32) --> 159,
(13,33) --> 121,
(13,34) --> 191,
(13,35) --> 168,
(13,36) --> 219,
(13,37) --> 216,
(13,38) --> 140,
(13,39) --> 168,
(13,40) --> 134,
(13,41) --> 145,
(13,42) --> 64,
(14,1) --> 90,
(14,2) --> 75,
(14,3) --> 93,
(14,4) --> 84,
(14,5) --> 76,
(14,6) --> 36,
(14,7) --> 60,
(14,8) --> 80,
(14,9) --> 122,
(14,10) --> 150,
(14,11) --> 99,
(14,12) --> 80,
(14,13) --> 72,
(14,14) --> 0,
(14,15) --> 59,
(14,16) --> 71,
(14,17) --> 63,
(14,18) --> 116,
(14,19) --> 56,
(14,20) --> 25,
(14,21) --> 170,
(14,22) --> 201,
(14,23) --> 189,
(14,24) --> 151,
(14,25) --> 252,
(14,26) --> 104,
(14,27) --> 44,
(14,28) --> 95,
(14,29) --> 111,
(14,30) --> 130,
(14,31) --> 138,
(14,32) --> 130,
(14,33) --> 127,
(14,34) --> 192,
(14,35) --> 174,
(14,36) --> 186,
(14,37) --> 172,
(14,38) --> 90,
(14,39) --> 205,
(14,40) --> 193,
(14,41) --> 214,
(14,42) --> 135,
(15,1) --> 74,
(15,2) --> 63,
(15,3) --> 95,
(15,4) --> 84,
(15,5) --> 83,
(15,6) --> 56,
(15,7) --> 63,
(15,8) --> 42,
(15,9) --> 148,
(15,10) --> 174,
(15,11) --> 134,
(15,12) --> 129,
(15,13) --> 117,
(15,14) --> 59,
(15,15) --> 0,
(15,16) --> 11,
(15,17) --> 8,
(15,18) --> 63,
(15,19) --> 93,
(15,20) --> 35,
(15,21) --> 135,
(15,22) --> 223,
(15,23) --> 195,
(15,24) --> 184,
(15,25) --> 273,
(15,26) --> 146,
(15,27) --> 71,
(15,28) --> 95,
(15,29) --> 113,
(15,30) --> 138,
(15,31) --> 138,
(15,32) --> 81,
(15,33) --> 107,
(15,34) --> 159,
(15,35) --> 146,
(15,36) --> 132,
(15,37) --> 113,
(15,38) --> 32,
(15,39) --> 200,
(15,40) --> 209,
(15,41) --> 243,
(15,42) --> 171,
(16,1) --> 76,
(16,2) --> 67,
(16,3) --> 100,
(16,4) --> 89,
(16,5) --> 89,
(16,6) --> 66,
(16,7) --> 70,
(16,8) --> 42,
(16,9) --> 155,
(16,10) --> 181,
(16,11) --> 142,
(16,12) --> 139,
(16,13) --> 128,
(16,14) --> 71,
(16,15) --> 11,
(16,16) --> 0,
(16,17) --> 11,
(16,18) --> 54,
(16,19) --> 103,
(16,20) --> 46,
(16,21) --> 130,
(16,22) --> 230,
(16,23) --> 198,
(16,24) --> 192,
(16,25) --> 279,
(16,26) --> 155,
(16,27) --> 80,
(16,28) --> 99,
(16,29) --> 117,
(16,30) --> 143,
(16,31) --> 141,
(16,32) --> 74,
(16,33) --> 107,
(16,34) --> 155,
(16,35) --> 143,
(16,36) --> 122,
(16,37) --> 102,
(16,38) --> 22,
(16,39) --> 202,
(16,40) --> 215,
(16,41) --> 250,
(16,42) --> 179,
(17,1) --> 82,
(17,2) --> 71,
(17,3) --> 104,
(17,4) --> 92,
(17,5) --> 91,
(17,6) --> 63,
(17,7) --> 71,
(17,8) --> 49,
(17,9) --> 156,
(17,10) --> 182,
(17,11) --> 141,
(17,12) --> 135,
(17,13) --> 124,
(17,14) --> 63,
(17,15) --> 8,
(17,16) --> 11,
(17,17) --> 0,
(17,18) --> 65,
(17,19) --> 100,
(17,20) --> 39,
(17,21) --> 140,
(17,22) --> 232,
(17,23) --> 203,
(17,24) --> 192,
(17,25) --> 281,
(17,26) --> 153,
(17,27) --> 78,
(17,28) --> 103,
(17,29) --> 121,
(17,30) --> 147,
(17,31) --> 146,
(17,32) --> 85,
(17,33) --> 115,
(17,34) --> 164,
(17,35) --> 152,
(17,36) --> 133,
(17,37) --> 112,
(17,38) --> 33,
(17,39) --> 208,
(17,40) --> 218,
(17,41) --> 251,
(17,42) --> 178,
(18,1) --> 67,
(18,2) --> 69,
(18,3) --> 98,
(18,4) --> 89,
(18,5) --> 95,
(18,6) --> 95,
(18,7) --> 85,
(18,8) --> 40,
(18,9) --> 159,
(18,10) --> 181,
(18,11) --> 157,
(18,12) --> 167,
(18,13) --> 153,
(18,14) --> 116,
(18,15) --> 63,
(18,16) --> 54,
(18,17) --> 65,
(18,18) --> 0,
(18,19) --> 127,
(18,20) --> 92,
(18,21) --> 83,
(18,22) --> 224,
(18,23) --> 180,
(18,24) --> 199,
(18,25) --> 269,
(18,26) --> 175,
(18,27) --> 106,
(18,28) --> 95,
(18,29) --> 109,
(18,30) --> 135,
(18,31) --> 125,
(18,32) --> 21,
(18,33) --> 80,
(18,34) --> 107,
(18,35) --> 100,
(18,36) --> 71,
(18,37) --> 63,
(18,38) --> 33,
(18,39) --> 173,
(18,40) --> 205,
(18,41) --> 249,
(18,42) --> 191,
(19,1) --> 72,
(19,2) --> 62,
(19,3) --> 57,
(19,4) --> 54,
(19,5) --> 43,
(19,6) --> 37,
(19,7) --> 44,
(19,8) --> 87,
(19,9) --> 67,
(19,10) --> 95,
(19,11) --> 44,
(19,12) --> 39,
(19,13) --> 26,
(19,14) --> 56,
(19,15) --> 93,
(19,16) --> 103,
(19,17) --> 100,
(19,18) --> 127,
(19,19) --> 0,
(19,20) --> 67,
(19,21) --> 153,
(19,22) --> 145,
(19,23) --> 139,
(19,24) --> 96,
(19,25) --> 196,
(19,26) --> 53,
(19,27) --> 23,
(19,28) --> 60,
(19,29) --> 70,
(19,30) --> 81,
(19,31) --> 95,
(19,32) --> 134,
(19,33) --> 101,
(19,34) --> 172,
(19,35) --> 149,
(19,36) --> 194,
(19,37) --> 190,
(19,38) --> 115,
(19,39) --> 160,
(19,40) --> 138,
(19,41) --> 159,
(19,42) --> 80,
(20,1) --> 78,
(20,2) --> 63,
(20,3) --> 88,
(20,4) --> 78,
(20,5) --> 72,
(20,6) --> 34,
(20,7) --> 52,
(20,8) --> 60,
(20,9) --> 129,
(20,10) --> 157,
(20,11) --> 110,
(20,12) --> 98,
(20,13) --> 88,
(20,14) --> 25,
(20,15) --> 35,
(20,16) --> 46,
(20,17) --> 39,
(20,18) --> 92,
(20,19) --> 67,
(20,20) --> 0,
(20,21) --> 152,
(20,22) --> 207,
(20,23) --> 188,
(20,24) --> 162,
(20,25) --> 258,
(20,26) --> 119,
(20,27) --> 48,
(20,28) --> 89,
(20,29) --> 107,
(20,30) --> 129,
(20,31) --> 134,
(20,32) --> 108,
(20,33) --> 114,
(20,34) --> 176,
(20,35) --> 159,
(20,36) --> 163,
(20,37) --> 147,
(20,38) --> 66,
(20,39) --> 200,
(20,40) --> 197,
(20,41) --> 224,
(20,42) --> 147,
(21,1) --> 82,
(21,2) --> 96,
(21,3) --> 99,
(21,4) --> 99,
(21,5) --> 110,
(21,6) --> 137,
(21,7) --> 115,
(21,8) --> 94,
(21,9) --> 148,
(21,10) --> 159,
(21,11) --> 161,
(21,12) --> 187,
(21,13) --> 174,
(21,14) --> 170,
(21,15) --> 135,
(21,16) --> 130,
(21,17) --> 140,
(21,18) --> 83,
(21,19) --> 153,
(21,20) --> 152,
(21,21) --> 0,
(21,22) --> 188,
(21,23) --> 128,
(21,24) --> 184,
(21,25) --> 222,
(21,26) --> 183,
(21,27) --> 139,
(21,28) --> 95,
(21,29) --> 95,
(21,30) --> 110,
(21,31) --> 91,
(21,32) --> 62,
(21,33) --> 54,
(21,34) --> 24,
(21,35) --> 23,
(21,36) --> 81,
(21,37) --> 110,
(21,38) --> 113,
(21,39) --> 108,
(21,40) --> 164,
(21,41) --> 217,
(21,42) --> 184,
(22,1) --> 159,
(22,2) --> 164,
(22,3) --> 130,
(22,4) --> 141,
(22,5) --> 141,
(22,6) --> 174,
(22,7) --> 161,
(22,8) --> 195,
(22,9) --> 78,
(22,10) --> 50,
(22,11) --> 103,
(22,12) --> 136,
(22,13) --> 136,
(22,14) --> 201,
(22,15) --> 223,
(22,16) --> 230,
(22,17) --> 232,
(22,18) --> 224,
(22,19) --> 145,
(22,20) --> 207,
(22,21) --> 188,
(22,22) --> 0,
(22,23) --> 65,
(22,24) --> 57,
(22,25) --> 51,
(22,26) --> 109,
(22,27) --> 160,
(22,28) --> 132,
(22,29) --> 116,
(22,30) --> 90,
(22,31) --> 102,
(22,32) --> 217,
(22,33) --> 148,
(22,34) --> 188,
(22,35) --> 168,
(22,36) --> 264,
(22,37) --> 281,
(22,38) --> 231,
(22,39) --> 100,
(22,40) --> 26,
(22,41) --> 30,
(22,42) --> 75,
(23,1) --> 122,
(23,2) --> 132,
(23,3) --> 100,
(23,4) --> 111,
(23,5) --> 116,
(23,6) --> 156,
(23,7) --> 136,
(23,8) --> 158,
(23,9) --> 80,
(23,10) --> 65,
(23,11) --> 109,
(23,12) --> 148,
(23,13) --> 142,
(23,14) --> 189,
(23,15) --> 195,
(23,16) --> 198,
(23,17) --> 203,
(23,18) --> 180,
(23,19) --> 139,
(23,20) --> 188,
(23,21) --> 128,
(23,22) --> 65,
(23,23) --> 0,
(23,24) --> 91,
(23,25) --> 94,
(23,26) --> 126,
(23,27) --> 145,
(23,28) --> 100,
(23,29) --> 82,
(23,30) --> 60,
(23,31) --> 57,
(23,32) --> 167,
(23,33) --> 99,
(23,34) --> 126,
(23,35) --> 106,
(23,36) --> 208,
(23,37) --> 230,
(23,38) --> 194,
(23,39) --> 36,
(23,40) --> 39,
(23,41) --> 94,
(23,42) --> 103,
(24,1) --> 131,
(24,2) --> 131,
(24,3) --> 101,
(24,4) --> 109,
(24,5) --> 105,
(24,6) --> 129,
(24,7) --> 122,
(24,8) --> 163,
(24,9) --> 39,
(24,10) --> 27,
(24,11) --> 52,
(24,12) --> 81,
(24,13) --> 82,
(24,14) --> 151,
(24,15) --> 184,
(24,16) --> 192,
(24,17) --> 192,
(24,18) --> 199,
(24,19) --> 96,
(24,20) --> 162,
(24,21) --> 184,
(24,22) --> 57,
(24,23) --> 91,
(24,24) --> 0,
(24,25) --> 106,
(24,26) --> 53,
(24,27) --> 115,
(24,28) --> 104,
(24,29) --> 94,
(24,30) --> 74,
(24,31) --> 94,
(24,32) --> 196,
(24,33) --> 134,
(24,34) --> 192,
(24,35) --> 168,
(24,36) --> 251,
(24,37) --> 260,
(24,38) --> 197,
(24,39) --> 126,
(24,40) --> 64,
(24,41) --> 64,
(24,42) --> 19,
(25,1) --> 206,
(25,2) --> 212,
(25,3) --> 179,
(25,4) --> 190,
(25,5) --> 190,
(25,6) --> 224,
(25,7) --> 210,
(25,8) --> 242,
(25,9) --> 129,
(25,10) --> 102,
(25,11) --> 154,
(25,12) --> 186,
(25,13) --> 187,
(25,14) --> 252,
(25,15) --> 273,
(25,16) --> 279,
(25,17) --> 281,
(25,18) --> 269,
(25,19) --> 196,
(25,20) --> 258,
(25,21) --> 222,
(25,22) --> 51,
(25,23) --> 94,
(25,24) --> 106,
(25,25) --> 0,
(25,26) --> 158,
(25,27) --> 211,
(25,28) --> 180,
(25,29) --> 163,
(25,30) --> 136,
(25,31) --> 145,
(25,32) --> 259,
(25,33) --> 190,
(25,34) --> 218,
(25,35) --> 200,
(25,36) --> 302,
(25,37) --> 323,
(25,38) --> 278,
(25,39) --> 120,
(25,40) --> 65,
(25,41) --> 49,
(25,42) --> 124,
(26,1) --> 112,
(26,2) --> 106,
(26,3) --> 86,
(26,4) --> 89,
(26,5) --> 81,
(26,6) --> 90,
(26,7) --> 91,
(26,8) --> 135,
(26,9) --> 46,
(26,10) --> 65,
(26,11) --> 22,
(26,12) --> 28,
(26,13) --> 32,
(26,14) --> 104,
(26,15) --> 146,
(26,16) --> 155,
(26,17) --> 153,
(26,18) --> 175,
(26,19) --> 53,
(26,20) --> 119,
(26,21) --> 183,
(26,22) --> 109,
(26,23) --> 126,
(26,24) --> 53,
(26,25) --> 158,
(26,26) --> 0,
(26,27) --> 75,
(26,28) --> 89,
(26,29) --> 88,
(26,30) --> 83,
(26,31) --> 103,
(26,32) --> 178,
(26,33) --> 129,
(26,34) --> 197,
(26,35) --> 173,
(26,36) --> 236,
(26,37) --> 238,
(26,38) --> 166,
(26,39) --> 156,
(26,40) --> 111,
(26,41) --> 115,
(26,42) --> 34,
(27,1) --> 57,
(27,2) --> 44,
(27,3) --> 51,
(27,4) --> 44,
(27,5) --> 34,
(27,6) --> 15,
(27,7) --> 25,
(27,8) --> 65,
(27,9) --> 82,
(27,10) --> 110,
(27,11) --> 63,
(27,12) --> 61,
(27,13) --> 48,
(27,14) --> 44,
(27,15) --> 71,
(27,16) --> 80,
(27,17) --> 78,
(27,18) --> 106,
(27,19) --> 23,
(27,20) --> 48,
(27,21) --> 139,
(27,22) --> 160,
(27,23) --> 145,
(27,24) --> 115,
(27,25) --> 211,
(27,26) --> 75,
(27,27) --> 0,
(27,28) --> 53,
(27,29) --> 68,
(27,30) --> 86,
(27,31) --> 95,
(27,32) --> 114,
(27,33) --> 90,
(27,34) --> 160,
(27,35) --> 139,
(27,36) --> 173,
(27,37) --> 168,
(27,38) --> 92,
(27,39) --> 162,
(27,40) --> 150,
(27,41) --> 176,
(27,42) --> 101,
(28,1) --> 28,
(28,2) --> 33,
(28,3) --> 4,
(28,4) --> 11,
(28,5) --> 19,
(28,6) --> 59,
(28,7) --> 37,
(28,8) --> 63,
(28,9) --> 65,
(28,10) --> 87,
(28,11) --> 68,
(28,12) --> 92,
(28,13) --> 79,
(28,14) --> 95,
(28,15) --> 95,
(28,16) --> 99,
(28,17) --> 103,
(28,18) --> 95,
(28,19) --> 60,
(28,20) --> 89,
(28,21) --> 95,
(28,22) --> 132,
(28,23) --> 100,
(28,24) --> 104,
(28,25) --> 180,
(28,26) --> 89,
(28,27) --> 53,
(28,28) --> 0,
(28,29) --> 18,
(28,30) --> 44,
(28,31) --> 45,
(28,32) --> 92,
(28,33) --> 42,
(28,34) --> 112,
(28,35) --> 89,
(28,36) --> 149,
(28,37) --> 156,
(28,38) --> 99,
(28,39) --> 111,
(28,40) --> 116,
(28,41) --> 155,
(28,42) --> 97,
(29,1) --> 43,
(29,2) --> 51,
(29,3) --> 18,
(29,4) --> 29,
(29,5) --> 35,
(29,6) --> 75,
(29,7) --> 54,
(29,8) --> 79,
(29,9) --> 55,
(29,10) --> 73,
(29,11) --> 66,
(29,12) --> 97,
(29,13) --> 85,
(29,14) --> 111,
(29,15) --> 113,
(29,16) --> 117,
(29,17) --> 121,
(29,18) --> 109,
(29,19) --> 70,
(29,20) --> 107,
(29,21) --> 95,
(29,22) --> 116,
(29,23) --> 82,
(29,24) --> 94,
(29,25) --> 163,
(29,26) --> 88,
(29,27) --> 68,
(29,28) --> 18,
(29,29) --> 0,
(29,30) --> 27,
(29,31) --> 27,
(29,32) --> 103,
(29,33) --> 42,
(29,34) --> 109,
(29,35) --> 85,
(29,36) --> 157,
(29,37) --> 168,
(29,38) --> 115,
(29,39) --> 94,
(29,40) --> 98,
(29,41) --> 140,
(29,42) --> 90,
(30,1) --> 70,
(30,2) --> 77,
(30,3) --> 43,
(30,4) --> 54,
(30,5) --> 57,
(30,6) --> 96,
(30,7) --> 78,
(30,8) --> 106,
(30,9) --> 40,
(30,10) --> 50,
(30,11) --> 61,
(30,12) --> 98,
(30,13) --> 89,
(30,14) --> 130,
(30,15) --> 138,
(30,16) --> 143,
(30,17) --> 147,
(30,18) --> 135,
(30,19) --> 81,
(30,20) --> 129,
(30,21) --> 110,
(30,22) --> 90,
(30,23) --> 60,
(30,24) --> 74,
(30,25) --> 136,
(30,26) --> 83,
(30,27) --> 86,
(30,28) --> 44,
(30,29) --> 27,
(30,30) --> 0,
(30,31) --> 21,
(30,32) --> 128,
(30,33) --> 62,
(30,34) --> 119,
(30,35) --> 96,
(30,36) --> 179,
(30,37) --> 192,
(30,38) --> 142,
(30,39) --> 79,
(30,40) --> 72,
(30,41) --> 115,
(30,42) --> 74,
(31,1) --> 65,
(31,2) --> 75,
(31,3) --> 45,
(31,4) --> 56,
(31,5) --> 63,
(31,6) --> 103,
(31,7) --> 81,
(31,8) --> 101,
(31,9) --> 61,
(31,10) --> 68,
(31,11) --> 81,
(31,12) --> 117,
(31,13) --> 106,
(31,14) --> 138,
(31,15) --> 138,
(31,16) --> 141,
(31,17) --> 146,
(31,18) --> 125,
(31,19) --> 95,
(31,20) --> 134,
(31,21) --> 91,
(31,22) --> 102,
(31,23) --> 57,
(31,24) --> 94,
(31,25) --> 145,
(31,26) --> 103,
(31,27) --> 95,
(31,28) --> 45,
(31,29) --> 27,
(31,30) --> 21,
(31,31) --> 0,
(31,32) --> 115,
(31,33) --> 46,
(31,34) --> 98,
(31,35) --> 75,
(31,36) --> 163,
(31,37) --> 179,
(31,38) --> 136,
(31,39) --> 67,
(31,40) --> 81,
(31,41) --> 129,
(31,42) --> 95,
(32,1) --> 66,
(32,2) --> 72,
(32,3) --> 95,
(32,4) --> 89,
(32,5) --> 97,
(32,6) --> 105,
(32,7) --> 90,
(32,8) --> 50,
(32,9) --> 157,
(32,10) --> 176,
(32,11) --> 158,
(32,12) --> 173,
(32,13) --> 159,
(32,14) --> 130,
(32,15) --> 81,
(32,16) --> 74,
(32,17) --> 85,
(32,18) --> 21,
(32,19) --> 134,
(32,20) --> 108,
(32,21) --> 62,
(32,22) --> 217,
(32,23) --> 167,
(32,24) --> 196,
(32,25) --> 259,
(32,26) --> 178,
(32,27) --> 114,
(32,28) --> 92,
(32,29) --> 103,
(32,30) --> 128,
(32,31) --> 115,
(32,32) --> 0,
(32,33) --> 69,
(32,34) --> 86,
(32,35) --> 81,
(32,36) --> 60,
(32,37) --> 65,
(32,38) --> 54,
(32,39) --> 158,
(32,40) --> 195,
(32,41) --> 243,
(32,42) --> 190,
(33,1) --> 37,
(33,2) --> 52,
(33,3) --> 45,
(33,4) --> 47,
(33,5) --> 58,
(33,6) --> 91,
(33,7) --> 68,
(33,8) --> 66,
(33,9) --> 97,
(33,10) --> 112,
(33,11) --> 107,
(33,12) --> 134,
(33,13) --> 121,
(33,14) --> 127,
(33,15) --> 107,
(33,16) --> 107,
(33,17) --> 115,
(33,18) --> 80,
(33,19) --> 101,
(33,20) --> 114,
(33,21) --> 54,
(33,22) --> 148,
(33,23) --> 99,
(33,24) --> 134,
(33,25) --> 190,
(33,26) --> 129,
(33,27) --> 90,
(33,28) --> 42,
(33,29) --> 42,
(33,30) --> 62,
(33,31) --> 46,
(33,32) --> 69,
(33,33) --> 0,
(33,34) --> 71,
(33,35) --> 49,
(33,36) --> 117,
(33,37) --> 133,
(33,38) --> 98,
(33,39) --> 95,
(33,40) --> 127,
(33,41) --> 175,
(33,42) --> 132,
(34,1) --> 103,
(34,2) --> 118,
(34,3) --> 115,
(34,4) --> 118,
(34,5) --> 129,
(34,6) --> 158,
(34,7) --> 136,
(34,8) --> 118,
(34,9) --> 159,
(34,10) --> 166,
(34,11) --> 175,
(34,12) --> 204,
(34,13) --> 191,
(34,14) --> 192,
(34,15) --> 159,
(34,16) --> 155,
(34,17) --> 164,
(34,18) --> 107,
(34,19) --> 172,
(34,20) --> 176,
(34,21) --> 24,
(34,22) --> 188,
(34,23) --> 126,
(34,24) --> 192,
(34,25) --> 218,
(34,26) --> 197,
(34,27) --> 160,
(34,28) --> 112,
(34,29) --> 109,
(34,30) --> 119,
(34,31) --> 98,
(34,32) --> 86,
(34,33) --> 71,
(34,34) --> 0,
(34,35) --> 24,
(34,36) --> 94,
(34,37) --> 127,
(34,38) --> 137,
(34,39) --> 100,
(34,40) --> 163,
(34,41) --> 218,
(34,42) --> 194,
(35,1) --> 84,
(35,2) --> 99,
(35,3) --> 93,
(35,4) --> 96,
(35,5) --> 107,
(35,6) --> 139,
(35,7) --> 116,
(35,8) --> 104,
(35,9) --> 135,
(35,10) --> 142,
(35,11) --> 151,
(35,12) --> 181,
(35,13) --> 168,
(35,14) --> 174,
(35,15) --> 146,
(35,16) --> 143,
(35,17) --> 152,
(35,18) --> 100,
(35,19) --> 149,
(35,20) --> 159,
(35,21) --> 23,
(35,22) --> 168,
(35,23) --> 106,
(35,24) --> 168,
(35,25) --> 200,
(35,26) --> 173,
(35,27) --> 139,
(35,28) --> 89,
(35,29) --> 85,
(35,30) --> 96,
(35,31) --> 75,
(35,32) --> 81,
(35,33) --> 49,
(35,34) --> 24,
(35,35) --> 0,
(35,36) --> 104,
(35,37) --> 133,
(35,38) --> 127,
(35,39) --> 85,
(35,40) --> 143,
(35,41) --> 197,
(35,42) --> 170,
(36,1) --> 125,
(36,2) --> 132,
(36,3) --> 152,
(36,4) --> 147,
(36,5) --> 156,
(36,6) --> 164,
(36,7) --> 150,
(36,8) --> 109,
(36,9) --> 212,
(36,10) --> 229,
(36,11) --> 216,
(36,12) --> 232,
(36,13) --> 219,
(36,14) --> 186,
(36,15) --> 132,
(36,16) --> 122,
(36,17) --> 133,
(36,18) --> 71,
(36,19) --> 194,
(36,20) --> 163,
(36,21) --> 81,
(36,22) --> 264,
(36,23) --> 208,
(36,24) --> 251,
(36,25) --> 302,
(36,26) --> 236,
(36,27) --> 173,
(36,28) --> 149,
(36,29) --> 157,
(36,30) --> 179,
(36,31) --> 163,
(36,32) --> 60,
(36,33) --> 117,
(36,34) --> 94,
(36,35) --> 104,
(36,36) --> 0,
(36,37) --> 39,
(36,38) --> 100,
(36,39) --> 190,
(36,40) --> 241,
(36,41) --> 292,
(36,42) --> 246,
(37,1) --> 129,
(37,2) --> 132,
(37,3) --> 159,
(37,4) --> 151,
(37,5) --> 158,
(37,6) --> 156,
(37,7) --> 147,
(37,8) --> 103,
(37,9) --> 221,
(37,10) --> 241,
(37,11) --> 219,
(37,12) --> 229,
(37,13) --> 216,
(37,14) --> 172,
(37,15) --> 113,
(37,16) --> 102,
(37,17) --> 112,
(37,18) --> 63,
(37,19) --> 190,
(37,20) --> 147,
(37,21) --> 110,
(37,22) --> 281,
(37,23) --> 230,
(37,24) --> 260,
(37,25) --> 323,
(37,26) --> 238,
(37,27) --> 168,
(37,28) --> 156,
(37,29) --> 168,
(37,30) --> 192,
(37,31) --> 179,
(37,32) --> 65,
(37,33) --> 133,
(37,34) --> 127,
(37,35) --> 133,
(37,36) --> 39,
(37,37) --> 0,
(37,38) --> 81,
(37,39) --> 216,
(37,40) --> 259,
(37,41) --> 307,
(37,42) --> 253,
(38,1) --> 72,
(38,2) --> 67,
(38,3) --> 100,
(38,4) --> 90,
(38,5) --> 92,
(38,6) --> 78,
(38,7) --> 76,
(38,8) --> 36,
(38,9) --> 159,
(38,10) --> 184,
(38,11) --> 150,
(38,12) --> 153,
(38,13) --> 140,
(38,14) --> 90,
(38,15) --> 32,
(38,16) --> 22,
(38,17) --> 33,
(38,18) --> 33,
(38,19) --> 115,
(38,20) --> 66,
(38,21) --> 113,
(38,22) --> 231,
(38,23) --> 194,
(38,24) --> 197,
(38,25) --> 278,
(38,26) --> 166,
(38,27) --> 92,
(38,28) --> 99,
(38,29) --> 115,
(38,30) --> 142,
(38,31) --> 136,
(38,32) --> 54,
(38,33) --> 98,
(38,34) --> 137,
(38,35) --> 127,
(38,36) --> 100,
(38,37) --> 81,
(38,38) --> 0,
(38,39) --> 193,
(38,40) --> 214,
(38,41) --> 253,
(38,42) --> 187,
(39,1) --> 126,
(39,2) --> 139,
(39,3) --> 112,
(39,4) --> 122,
(39,5) --> 129,
(39,6) --> 169,
(39,7) --> 148,
(39,8) --> 160,
(39,9) --> 110,
(39,10) --> 99,
(39,11) --> 137,
(39,12) --> 176,
(39,13) --> 168,
(39,14) --> 205,
(39,15) --> 200,
(39,16) --> 202,
(39,17) --> 208,
(39,18) --> 173,
(39,19) --> 160,
(39,20) --> 200,
(39,21) --> 108,
(39,22) --> 100,
(39,23) --> 36,
(39,24) --> 126,
(39,25) --> 120,
(39,26) --> 156,
(39,27) --> 162,
(39,28) --> 111,
(39,29) --> 94,
(39,30) --> 79,
(39,31) --> 67,
(39,32) --> 158,
(39,33) --> 95,
(39,34) --> 100,
(39,35) --> 85,
(39,36) --> 190,
(39,37) --> 216,
(39,38) --> 193,
(39,39) --> 0,
(39,40) --> 74,
(39,41) --> 129,
(39,42) --> 137,
(40,1) --> 141,
(40,2) --> 148,
(40,3) --> 114,
(40,4) --> 126,
(40,5) --> 127,
(40,6) --> 163,
(40,7) --> 147,
(40,8) --> 178,
(40,9) --> 72,
(40,10) --> 46,
(40,11) --> 100,
(40,12) --> 137,
(40,13) --> 134,
(40,14) --> 193,
(40,15) --> 209,
(40,16) --> 215,
(40,17) --> 218,
(40,18) --> 205,
(40,19) --> 138,
(40,20) --> 197,
(40,21) --> 164,
(40,22) --> 26,
(40,23) --> 39,
(40,24) --> 64,
(40,25) --> 65,
(40,26) --> 111,
(40,27) --> 150,
(40,28) --> 116,
(40,29) --> 98,
(40,30) --> 72,
(40,31) --> 81,
(40,32) --> 195,
(40,33) --> 127,
(40,34) --> 163,
(40,35) --> 143,
(40,36) --> 241,
(40,37) --> 259,
(40,38) --> 214,
(40,39) --> 74,
(40,40) --> 0,
(40,41) --> 55,
(40,42) --> 80,
(41,1) --> 183,
(41,2) --> 186,
(41,3) --> 153,
(41,4) --> 163,
(41,5) --> 161,
(41,6) --> 191,
(41,7) --> 180,
(41,8) --> 218,
(41,9) --> 95,
(41,10) --> 69,
(41,11) --> 115,
(41,12) --> 143,
(41,13) --> 145,
(41,14) --> 214,
(41,15) --> 243,
(41,16) --> 250,
(41,17) --> 251,
(41,18) --> 249,
(41,19) --> 159,
(41,20) --> 224,
(41,21) --> 217,
(41,22) --> 30,
(41,23) --> 94,
(41,24) --> 64,
(41,25) --> 49,
(41,26) --> 115,
(41,27) --> 176,
(41,28) --> 155,
(41,29) --> 140,
(41,30) --> 115,
(41,31) --> 129,
(41,32) --> 243,
(41,33) --> 175,
(41,34) --> 218,
(41,35) --> 197,
(41,36) --> 292,
(41,37) --> 307,
(41,38) --> 253,
(41,39) --> 129,
(41,40) --> 55,
(41,41) --> 0,
(41,42) --> 81,
(42,1) --> 124,
(42,2) --> 122,
(42,3) --> 94,
(42,4) --> 101,
(42,5) --> 95,
(42,6) --> 115,
(42,7) --> 111,
(42,8) --> 153,
(42,9) --> 35,
(42,10) --> 38,
(42,11) --> 37,
(42,12) --> 62,
(42,13) --> 64,
(42,14) --> 135,
(42,15) --> 171,
(42,16) --> 179,
(42,17) --> 178,
(42,18) --> 191,
(42,19) --> 80,
(42,20) --> 147,
(42,21) --> 184,
(42,22) --> 75,
(42,23) --> 103,
(42,24) --> 19,
(42,25) --> 124,
(42,26) --> 34,
(42,27) --> 101,
(42,28) --> 97,
(42,29) --> 90,
(42,30) --> 74,
(42,31) --> 95,
(42,32) --> 190,
(42,33) --> 132,
(42,34) --> 194,
(42,35) --> 170,
(42,36) --> 246,
(42,37) --> 253,
(42,38) --> 187,
(42,39) --> 137,
(42,40) --> 80,
(42,41) --> 81,
(42,42) --> 0)
